W=10;
H=9;

MAX_TIME=W*H;
MAX_TRACKS=48;

TARGET=(5,10);

TRAINS=[(2,1,RIGHT),(6,1,RIGHT),(4,1,RIGHT),(8,1,RIGHT)];
DECOYS=[];

INIT_POS=[
(1,5,STRAIGHT_RL),
(2,1,STRAIGHT_RL),
(3,1,ROCK),
(3,2,ROCK),
(3,3,ROCK),
(3,5,ROCK),
(4,1,STRAIGHT_RL),
(4,5,STRAIGHT_RL),
(5,9,ESWITCH_D_T_R),
(5,10,STRAIGHT_RL),
(6,1,STRAIGHT_RL),
(6,5,STRAIGHT_RL),
(7,5,ROCK),
(8,1,STRAIGHT_RL),
(9,5,STRAIGHT_RL),
];
TUNNEL_PAIRS=[];

GATES=[];
ACTIVATIONS=[];

DSWITCHES=[];
STATIONS=[
  (1,5,4),
  (4,5,3),
  (6,5,2),
  (9,5,1),
];
